p tw 72 222
0 1
0 2
0 3
0 15
0 16
0 17
0 25
0 57
0 58
1 2
1 3
1 20
1 51
1 52
1 14
1 47
1 67
2 3
2 33
2 34
2 35
4 5
4 6
4 7
5 6
5 7
5 14
5 36
5 39
5 19
5 22
5 35
6 7
7 28
7 53
7 63
8 9
8 10
9 10
9 34
9 60
9 61
10 30
10 40
10 41
10 66
10 67
10 68
11 12
11 13
11 14
11 19
11 41
11 61
12 13
12 14
13 14
13 18
13 41
13 51
13 24
13 39
13 59
14 22
14 23
14 24
14 36
14 39
14 44
14 45
14 47
14 67
15 16
15 17
15 36
15 57
15 62
16 17
17 23
17 42
17 65
18 19
18 20
18 21
18 31
18 36
18 41
18 51
19 20
19 21
19 22
19 35
19 41
19 61
19 28
19 54
19 62
20 21
20 51
20 52
22 23
22 24
22 35
22 25
22 46
22 53
23 24
23 44
23 45
23 37
23 54
23 55
23 62
23 63
23 64
23 42
23 65
24 39
24 59
24 27
24 41
24 55
25 26
25 27
25 28
25 46
25 53
25 31
25 41
25 56
25 57
25 58
26 27
26 28
26 31
26 33
26 45
26 69
26 70
26 71
27 28
27 41
27 55
28 46
28 47
28 48
28 53
28 63
28 54
28 62
29 30
29 31
29 32
29 37
29 38
29 42
29 43
30 31
30 32
30 40
30 41
30 42
30 43
31 32
31 36
31 41
31 56
31 33
31 45
33 34
33 35
33 45
34 35
34 60
34 61
36 39
36 57
36 62
37 38
37 54
37 55
39 47
39 49
39 50
39 59
40 41
41 51
41 56
41 55
41 61
41 57
41 69
42 43
42 65
44 45
46 47
46 48
46 53
47 48
47 49
47 50
47 67
49 50
51 52
53 63
54 55
54 62
56 57
56 69
57 58
57 69
57 62
60 61
62 63
62 64
63 64
66 67
66 68
67 68
69 70
69 71
70 71
